Solver command line: ['C:\\Program Files\\IBM\\ILOG\\CPLEX_Studio2211\\cplex\\bin\\x64_win64\\cplex.exe']


Welcome to IBM(R) ILOG(R) CPLEX(R) Interactive Optimizer 22.1.1.0
  with Simplex, Mixed Integer & Barrier Optimizers
5725-A06 5725-A29 5724-Y48 5724-Y49 5724-Y54 5724-Y55 5655-Y21
Copyright IBM Corp. 1988, 2022.  All Rights Reserved.

Type 'help' for a list of available commands.
Type 'help' followed by a command name for more
information on commands.

CPLEX> Logfile 'cplex.log' closed.
Logfile 'C:\Users\wangy\Documents\GitHub\re_optimization\result_site_specific\tmpugxynedq.cplex.log' open.
CPLEX> Problem 'C:\Users\wangy\Documents\GitHub\re_optimization\result_site_specific\tmp8g2bb4eh.pyomo.lp' read.
Read time = 0.30 sec. (7.28 ticks)
CPLEX> Problem name         : C:\Users\wangy\Documents\GitHub\re_optimization\result_site_specific\tmp8g2bb4eh.pyomo.lp
Objective sense      : Minimize
Variables            :   52617  [Nneg: 27764,  Free: 8786,  Binary: 7,
                                 Other: 16060]
Objective nonzeros   :      14
Linear constraints   :   73052  [Less: 39437,  Greater: 3,  Equal: 33612]
  Nonzeros           :  181222
  RHS nonzeros       :    3791

Variables            : Min LB: 0.000000         Max UB: 1.000000       
Objective nonzeros   : Min   : 1.000000         Max   : 1.000000       
Linear constraints   :
  Nonzeros           : Min   : 0.001987536      Max   : 100000.0       
  RHS nonzeros       : Min   : 0.02400000       Max   : 1000.000       
CPLEX> Version identifier: 22.1.1.0 | 2022-11-27 | 9160aff4d
Tried aggregator 3 times.
MIP Presolve eliminated 47742 rows and 28763 columns.
Aggregator did 7364 substitutions.
Reduced MIP has 17946 rows, 16490 columns, and 52056 nonzeros.
Reduced MIP has 5 binaries, 0 generals, 0 SOSs, and 0 indicators.
Presolve time = 0.16 sec. (152.69 ticks)
Found incumbent of value 193323.129329 after 0.22 sec. (177.95 ticks)
Probing time = 0.02 sec. (1.09 ticks)
Tried aggregator 1 time.
Detecting symmetries...
Reduced MIP has 17946 rows, 16490 columns, and 52056 nonzeros.
Reduced MIP has 5 binaries, 0 generals, 0 SOSs, and 0 indicators.
Presolve time = 0.03 sec. (31.01 ticks)
Probing time = 0.00 sec. (0.98 ticks)
MIP emphasis: balance optimality and feasibility.
MIP search method: dynamic search.
Parallel mode: deterministic, using up to 16 threads.
Root relaxation solution time = 0.83 sec. (485.74 ticks)

        Nodes                                         Cuts/
   Node  Left     Objective  IInf  Best Integer    Best Bound    ItCnt     Gap

*     0+    0                       193323.1293    -3698.4844           101.91%
*     0+    0                         6631.7951    -3698.4844           155.77%
      0     0     6153.6502     1     6631.7951     6153.6502       46    7.21%
*     0+    0                         6631.6556     6153.6502             7.21%
      0     0        cutoff           6631.6556                    647    0.00%
Elapsed time = 1.42 sec. (947.13 ticks, tree = 0.01 MB, solutions = 3)

Root node processing (before b&c):
  Real time             =    1.44 sec. (949.63 ticks)
Parallel b&c, 16 threads:
  Real time             =    0.00 sec. (0.00 ticks)
  Sync time (average)   =    0.00 sec.
  Wait time (average)   =    0.00 sec.
                          ------------
Total (root+branch&cut) =    1.44 sec. (949.63 ticks)

Solution pool: 3 solutions saved.

MIP - Integer optimal solution:  Objective =  6.6316556093e+03
Solution time =    1.44 sec.  Iterations = 647  Nodes = 0
Deterministic time = 949.78 ticks  (660.49 ticks/sec)

CPLEX> Incumbent solution written to file 'C:\Users\wangy\Documents\GitHub\re_optimization\result_site_specific\tmpatza21n3.cplex.sol'.
CPLEX> 
